 vasp.6.5.0 16Dec24 (build May  7 2025 20:30:25) gamma-only
 executed on             LinuxGNU date 2025.06.05  05:02:00

 INCAR:
   SYSTEM = Au_FRESH_TRAIN
   ISMEAR = 0
   SIGMA = 0.05
   IVDW = 12
   ENCUT = 600
   PREC = Normal
   LASPH = TRUE
   NELM = 250
   EDIFF = 1E-6
   IBRION = 2
   ISIF = 3
   NSW = 0
   EDIFFG = -0.01
   ALGO = Normal
   LREAL = Auto
   LCHARG = False
   ISYM = 0
   POMASS = 12.011 40.078 18.998 2.000 14.001 16.000 32.066
   NCORE = 24
   SYMPREC = 1E-8

 POTCAR:    PAW_PBE C 08Apr2002
 POTCAR:    PAW_PBE Ca_sv 06Sep2000
 POTCAR:    PAW_PBE F 08Apr2002
 POTCAR:    PAW_PBE H 15Jun2001
 POTCAR:    PAW_PBE N 08Apr2002
 POTCAR:    PAW_PBE O 08Apr2002
 POTCAR:    PAW_PBE S 06Sep2000
 POTCAR:    PAW_PBE C 08Apr2002
   VRHFIN =C: s2p2

   TITEL  = PAW_PBE C 08Apr2002
   POMASS =   12.011; ZVAL   =    4.000    mass and valenz
   ENMAX  =  400.000; ENMIN  =  300.000 eV

 POTCAR:    PAW_PBE Ca_sv 06Sep2000
   VRHFIN =Ca: 3s3p4s

   TITEL  = PAW_PBE Ca_sv 06Sep2000
   POMASS =   40.078; ZVAL   =   10.000    mass and valenz
   ENMAX  =  266.622; ENMIN  =  199.967 eV

 POTCAR:    PAW_PBE F 08Apr2002
   VRHFIN =F: s2p5

[...]

 POTCAR:    PAW_PBE H 15Jun2001
   VRHFIN =H: ultrasoft test

   TITEL  = PAW_PBE H 15Jun2001
   POMASS =    1.000; ZVAL   =    1.000    mass and valenz
   ENMAX  =  250.000; ENMIN  =  200.000 eV

 POTCAR:    PAW_PBE N 08Apr2002
   VRHFIN =N: s2p3

[...]

 POTCAR:    PAW_PBE O 08Apr2002
   VRHFIN =O: s2p4

[...]

 POTCAR:    PAW_PBE S 06Sep2000
   VRHFIN =S : s2p4

   TITEL  = PAW_PBE S 06Sep2000
   POMASS =   32.066; ZVAL   =    6.000    mass and valenz
   ENMAX  =  258.689; ENMIN  =  194.016 eV

 Optimization of the real space projectors (new method)

 maximal supplied QI-value         = 25.13
 optimisation between [QCUT,QGAM] = [ 12.32, 24.88] = [ 42.47,173.37] Ry
 Optimized for a Real-space Cutoff    1.06 Angstroem

   l    n(q)    QCUT    max X(q) W(low)/X(q) W(high)/X(q)  e(spline)
   0      8    12.315   115.676    0.34E-03    0.18E-03    0.23E-06
   0      8    12.315    87.132    0.34E-03    0.18E-03    0.22E-06
   1      7    12.315     4.429    0.45E-03    0.12E-03    0.18E-06
   1      7    12.315     2.733    0.35E-03    0.97E-04    0.15E-06
 Optimization of the real space projectors (new method)

[...]

   l    n(q)    QCUT    max X(q) W(low)/X(q) W(high)/X(q)  e(spline)
   0      8    12.501   187.594    0.26E-03    0.17E-03    0.97E-07
   0      8    12.501   164.243    0.26E-03    0.17E-03    0.96E-07
   1      7    12.501    67.533    0.50E-03    0.61E-03    0.91E-07
   1      7    12.501    50.729    0.48E-03    0.60E-03    0.90E-07
  PAW_PBE C 08Apr2002                   :
  PAW_PBE Ca_sv 06Sep2000               :
  PAW_PBE F 08Apr2002                   :
  PAW_PBE H 15Jun2001                   :
  PAW_PBE N 08Apr2002                   :
  PAW_PBE O 08Apr2002                   :
  PAW_PBE S 06Sep2000                   :

 POSCAR: POSCAR file written by OVITO Basic 3.12.
  positions in cartesian coordinates
 IVDW         = 12
 VDW_S6       =    1.0000
 VDW_S8       =    0.7875
 VDW_A1       =    0.4289
 VDW_A2       =    4.4407
 VDW_RADIUS   =   50.2022 A
 VDW_CNRADIUS =   21.1671 A

 exchange-correlation table for PE
   RHO(1)=    0.500       N(1)  =     2000
   RHO(2)=  100.500       N(2)  =     4000

 ion  position               nearest neighbor table
   1  0.643  0.205  0.664- 178 1.08 184 1.11 188 1.14 534 1.40
   2  0.682  0.111  0.595- 185 1.08 179 1.10 534 1.44   7 1.50
   3  0.598  0.907  0.710- 180 1.12 186 1.14 535 1.49   8 1.51
   4  0.500  0.903  0.619- 187 1.08 181 1.10 535 1.42   9 1.51
   5  0.389  0.898  0.847- 189 1.12 182 1.18 536 1.43  10 1.54
   6  0.459  0.871  0.944- 190 1.03 195 1.10 183 1.13 536 1.47
   7  0.698  0.034  0.604- 191 1.11 196 1.12 532 1.41   2 1.50
   8  0.660  0.945  0.678- 197 1.09 192 1.09 532 1.41   3 1.51
   9  0.430  0.884  0.651- 193 1.10 198 1.15 533 1.51   4 1.51
  10  0.375  0.882  0.768- 194 1.09 199 1.13 533 1.39   5 1.54
  11  0.636  0.601  0.525- 200 1.09 206 1.14 210 1.18 539 1.43
  12  0.585  0.577  0.636- 207 1.06 201 1.10 539 1.45  17 1.54
  13  0.442  0.661  0.801- 202 1.08 208 1.12 540 1.43  18 1.47
  14  0.326  0.625  0.784- 209 1.05 203 1.13 540 1.40  19 1.58
  15  0.145  0.791  0.722- 204 1.10 211 1.18 541 1.42  20 1.49
  16  0.143  0.901  0.667- 205 1.09 212 1.12 217 1.13 541 1.40
  17  0.572  0.610  0.710- 218 1.11 213 1.11 537 1.45  12 1.54
  18  0.496  0.704  0.764- 214 1.13 219 1.15  13 1.47 537 1.49
  19  0.287  0.692  0.814- 215 1.05 220 1.12 538 1.42  14 1.58
  20  0.193  0.771  0.781- 221 1.06 216 1.13 538 1.40  15 1.49
  21  0.552  0.038  0.849- 232 1.04 222 1.09 228 1.11 544 1.40
  22  0.496  0.101  0.759- 223 1.07 229 1.08 544 1.39  27 1.58
  23  0.651  0.221  0.909- 230 1.11 224 1.12 545 1.41  28 1.51
  24  0.721  0.242  0.011- 231 1.05 225 1.20 545 1.43  29 1.49
  25  0.667  0.251  0.246- 226 1.12 233 1.13 546 1.46  30 1.47
  26  0.559  0.281  0.297- 227 1.06 234 1.06 239 1.10 546 1.43
  27  0.498  0.176  0.796- 240 1.10 235 1.11 542 1.41  22 1.58
  28  0.575  0.230  0.883- 241 1.09 236 1.18 542 1.48  23 1.51
  29  0.716  0.265  0.087- 237 1.06 242 1.14 543 1.46  24 1.49
  30  0.705  0.199  0.202- 238 1.09 243 1.10 543 1.43  25 1.47
  31  0.223  0.606  0.569- 244 1.03 250 1.09 254 1.16 549 1.44
  32  0.098  0.610  0.536- 251 1.08 245 1.13 549 1.45  37 1.51
  33  0.128  0.789  0.485- 252 1.06 246 1.17 550 1.38  38 1.54
  34  0.150  0.821  0.364- 253 1.10 247 1.11 550 1.43  39 1.47
  35  0.936  0.767  0.280- 255 1.08 248 1.18 551 1.45  40 1.48
  36  0.886  0.821  0.182- 256 1.08 249 1.12 261 1.14 551 1.42
  37  0.032  0.652  0.549- 262 1.07 257 1.09 547 1.47  32 1.51
  38  0.064  0.776  0.535- 263 1.11 258 1.12 547 1.41  33 1.54
  39  0.104  0.817  0.301- 259 1.06 264 1.12 548 1.45  34 1.47
  40  0.990  0.769  0.337- 265 1.10 260 1.11  35 1.48 548 1.53
  41  0.520  0.292  0.514- 276 1.07 272 1.08 266 1.13 554 1.46
  42  0.480  0.181  0.549- 273 1.04 267 1.09 554 1.39  47 1.52
  43  0.403  0.978  0.438- 268 1.08 274 1.10 555 1.44  48 1.56
  44  0.295  0.967  0.510- 269 1.11 275 1.12 555 1.45  49 1.46
  45  0.268  0.121  0.719- 270 1.10 277 1.11 556 1.39  50 1.52
  46  0.308  0.080  0.830- 278 1.11 283 1.12 271 1.20 556 1.40
  47  0.482  0.102  0.530- 284 1.08 279 1.09 552 1.39  42 1.52
  48  0.477  0.014  0.442- 285 1.06 280 1.13 552 1.42  43 1.56
  49  0.263  0.033  0.536- 281 1.13 286 1.15  44 1.46 553 1.48
  50  0.242  0.103  0.645- 287 1.09 282 1.11 553 1.48  45 1.52
  51  0.659  0.799  0.929- 298 1.10 294 1.12 288 1.13 559 1.39
  52  0.638  0.682  0.962- 295 1.15 289 1.15 559 1.38  57 1.52
  53  0.459  0.643  0.087- 290 1.09 296 1.12 560 1.45  58 1.51
  54  0.385  0.733  0.043- 291 1.06 297 1.10 560 1.41  59 1.53
  55  0.251  0.846  0.165- 299 1.05 292 1.05 561 1.45  60 1.55
  56  0.321  0.892  0.270- 300 1.04 305 1.11 293 1.13 561 1.42
  57  0.583  0.624  0.956- 301 1.13 306 1.13 557 1.44  52 1.52
  58  0.487  0.594  0.030- 307 1.06 302 1.16 557 1.41  53 1.51
  59  0.307  0.755  0.038- 308 1.12 303 1.14 558 1.47  54 1.53
  60  0.309  0.861  0.109- 309 1.13 304 1.13 558 1.44  55 1.55
[...]
 609  0.537  0.438  0.140- 159 1.42 160 1.44
 610  0.906  0.559  0.331- 152 1.43 151 1.45
 611  0.603  0.474  0.293- 153 1.38 154 1.44
 612  0.534  0.818  0.382- 620 1.44
 613  0.678  0.740  0.703- 621 1.44 165 2.42
 614  0.765  0.812  0.770- 621 1.46
 615  0.478  0.764  0.275- 620 1.45
 616  0.782  0.702  0.535- 623 1.46
 617  0.408  0.640  0.495- 622 1.41
 618  0.510  0.721  0.515- 622 1.50 165 2.42
 619  0.689  0.797  0.562- 623 1.51 165 2.37
 620  0.508  0.757  0.346- 612 1.44 615 1.45 530 1.66 161 1.94
 621  0.751  0.761  0.713- 613 1.44 614 1.46 531 1.62 162 1.91 623 2.78
 622  0.445  0.702  0.473- 617 1.41 618 1.50 530 1.59 163 1.94
 623  0.765  0.770  0.566- 616 1.46 619 1.51 531 1.60 164 1.90 621 2.78

IMPORTANT INFORMATION: All symmetrisations will be switched off!
NOSYMM: (Re-)initialisation of all symmetry stuff for point group C_1.

                                     Primitive cell

  volume of cell :    6713.4328

  direct lattice vectors                    reciprocal lattice vectors
    18.864626645  0.000000000  0.000000000     0.053009265  0.000000000  0.000000000
     0.000000000 18.864626645  0.000000000     0.000000000  0.053009265  0.000000000
     0.000000000  0.000000000 18.864626645     0.000000000  0.000000000  0.053009265

  length of vectors
    18.864626645 18.864626645 18.864626645     0.053009265  0.053009265  0.053009265

  position of ions in fractional coordinates (direct lattice)
     0.642859970  0.204950959  0.664047774
     0.682224651  0.111333416  0.594669247
     0.598268576  0.907455718  0.710255950
     0.500344560  0.903193773  0.618878579
     0.389136422  0.897590694  0.846744207
     0.459119255  0.871398816  0.943904889
     0.698461389  0.033912324  0.603691424
     0.660374231  0.945479264  0.677517428
     0.429582492  0.884099836  0.651256638
     0.375433527  0.881804535  0.767749799
     0.635507585  0.600728206  0.525380836
     0.584623991  0.577165588  0.635597701
     0.441620896  0.660994440  0.800631447
     0.325718788  0.624969343  0.783737394
     0.144730313  0.791429038  0.722320859
     0.142832581  0.900909074  0.667000390
     0.572193319  0.610047235  0.709503219
     0.495541921  0.704472639  0.764442021
     0.286737894  0.692365323  0.813915569
     0.193165409  0.771433943  0.781092231
     0.551731742  0.037951099  0.849362864
     0.496040208  0.100860905  0.758717021
     0.650832564  0.221371109  0.909401158
     0.720963822  0.241774375  0.011278427
     0.667387357  0.250699015  0.246050633
     0.558675956  0.280899454  0.296775199
     0.497821319  0.175984576  0.795977233
     0.575479893  0.230305821  0.883495530
     0.715726506  0.264707244  0.086855857
     0.705188264  0.198766898  0.201544054
     0.223265660  0.606304781  0.568684105
     0.098323882  0.609798091  0.535876671
     0.127879198  0.788895195  0.485162707
     0.149968159  0.820684852  0.363778380
     0.936128430  0.767405239  0.280198141
     0.885933957  0.820684852  0.181506551
     0.031638226  0.651712517  0.549431140
     0.064071945  0.776247185  0.534668060
     0.104291665  0.816677351  0.300967702
     0.989598876  0.769435494  0.337279048
     0.520360859  0.291691610  0.514042154
     0.480338863  0.180798347  0.548742020
     0.402940035  0.977846722  0.437639900
     0.294913513  0.967239568  0.509780209
     0.268211686  0.120649794  0.719225118
     0.307603401  0.080333067  0.830173510
     0.481658794  0.102299047  0.529600374
     0.477269627  0.014043391  0.442082077
     0.262713035  0.032711664  0.535760050
     0.242108864  0.103396869  0.644731197
     0.659038398  0.799486447  0.929067596
     0.637871798  0.682420785  0.961588780
     0.458854208  0.643077308  0.086819811
     0.384847973  0.733224865  0.042569267
     0.250617911  0.845768836  0.164822945
     0.321365137  0.892199652  0.269850733
     0.582911792  0.623856149  0.956181835
     0.486912012  0.593534849  0.030188423
     0.307172436  0.755488756  0.038145643
     0.308808302  0.861136222  0.109214635
[...]
[...]
     0.000000000  0.000000000 18.816970313     0.000000000  0.000000000  0.053143518

  length of vectors
    18.816970313 18.816970313 18.816970313     0.053143518  0.053143518  0.053143518

 FORCES acting on ions
    electron-ion (+dipol)            ewald-force                    non-local-force                 convergence-correction
   0.551E+02 -.150E+03 0.316E+02   -.569E+02 0.155E+03 -.310E+02   0.318E+01 -.532E+01 -.168E+01   -.259E-03 0.199E-03 0.689E-03
   -.365E+02 -.110E+03 0.116E+03   0.366E+02 0.109E+03 -.121E+03   -.203E+00 0.258E+01 0.488E+01   0.361E-03 -.832E-03 -.179E-03
   -.181E+02 -.697E+02 -.192E+03   0.209E+02 0.727E+02 0.197E+03   -.222E+01 -.346E+01 -.554E+01   0.252E-03 -.212E-03 -.259E-03
   0.316E+02 -.173E+03 0.112E+03   -.356E+02 0.179E+03 -.116E+03   0.501E+01 -.387E+01 0.366E+01   0.318E-03 -.299E-03 -.242E-03
   0.944E+02 -.150E+03 -.834E+02   -.951E+02 0.153E+03 0.799E+02   0.146E+01 -.388E+01 0.296E+01   0.718E-04 0.920E-04 -.159E-03
   0.513E+01 -.649E+02 -.165E+03   -.217E+01 0.663E+02 0.171E+03   -.859E+00 -.420E+00 -.569E+01   0.151E-03 0.231E-03 0.371E-03
   -.153E+03 -.716E+02 0.263E+02   0.157E+03 0.730E+02 -.276E+02   -.565E+01 -.240E+01 0.230E+01   0.520E-03 -.686E-03 -.400E-03
   -.116E+03 -.238E+02 -.802E+02   0.119E+03 0.184E+02 0.813E+02   -.200E+01 0.449E+01 -.111E+01   0.376E-03 -.304E-03 -.289E-03
   0.122E+03 -.485E+02 0.490E+02   -.125E+03 0.470E+02 -.531E+02   0.643E+00 0.152E+01 0.546E+01   0.378E-03 -.247E-03 -.105E-03
   0.171E+03 -.697E+02 -.184E+02   -.177E+03 0.704E+02 0.202E+02   0.644E+01 -.197E-01 0.237E+00   0.184E-03 -.721E-04 -.386E-04
   -.502E+02 0.210E+03 0.135E+03   0.521E+02 -.213E+03 -.141E+03   -.812E+00 0.171E+01 0.704E+01   -.168E-03 0.481E-03 0.422E-03
   0.757E+02 0.257E+03 -.895E+01   -.819E+02 -.260E+03 0.932E+01   0.561E+01 0.278E+01 -.124E+01   -.158E-03 -.117E-03 0.117E-03
   -.315E+02 0.343E+02 -.155E+03   0.347E+02 -.312E+02 0.158E+03   -.385E+01 -.193E+01 -.284E+01   0.357E-03 -.413E-04 -.439E-03
   0.515E+02 0.134E+03 -.877E+02   -.558E+02 -.134E+03 0.925E+02   0.438E+01 0.251E+00 -.273E+01   -.556E-04 -.341E-03 0.135E-04
   0.171E+03 -.508E+01 -.156E+02   -.174E+03 0.194E+01 0.173E+02   0.339E+01 0.260E+01 -.197E+01   -.351E-03 0.197E-03 0.612E-04
   0.856E+02 -.148E+03 -.354E+02   -.853E+02 0.153E+03 0.349E+02   0.111E+00 -.578E+01 -.124E+01   -.363E-03 0.132E-03 0.604E-04
   0.190E+01 0.191E+03 -.143E+03   -.615E+00 -.197E+03 0.145E+03   -.157E+01 0.602E+01 -.743E+00   0.405E-04 -.308E-03 -.336E-03
   0.463E+02 -.588E+02 -.120E+03   -.508E+02 0.640E+02 0.125E+03   0.431E+01 -.404E+01 -.377E+01   0.308E-03 -.135E-03 -.526E-03
   0.127E+02 0.226E+02 -.163E+03   -.925E+01 -.247E+02 0.169E+03   -.259E+01 0.193E+01 -.431E+01   -.803E-04 -.169E-03 0.276E-03
   0.963E+02 -.960E+02 -.117E+03   -.992E+02 0.101E+03 0.119E+03   0.498E+01 -.402E+01 -.877E+00   -.361E-03 0.153E-03 0.958E-04
   -.121E+03 0.510E+02 -.588E+02   0.127E+03 -.538E+02 0.602E+02   -.505E+01 0.116E+01 -.187E+01   -.475E-04 0.879E-04 0.282E-03
   0.554E+02 -.476E+02 0.996E+02   -.553E+02 0.519E+02 -.106E+03   -.585E+00 -.348E+01 0.392E+01   -.943E-04 0.250E-03 0.388E-03
   -.188E+02 -.374E+02 0.910E+02   0.190E+02 0.379E+02 -.968E+02   0.520E+00 -.156E+01 0.595E+01   -.349E-03 -.896E-04 0.361E-04
   -.117E+03 -.165E+02 0.463E+02   0.123E+03 0.169E+02 -.449E+02   -.500E+01 -.571E+00 -.344E+00   -.165E-03 -.682E-04 0.107E-03
   -.135E+02 -.100E+03 -.972E+02   0.170E+02 0.102E+03 0.972E+02   -.514E+01 -.122E+01 -.729E+00   0.134E-03 -.947E-03 -.432E-03
   0.114E+03 -.910E+02 -.550E+02   -.118E+03 0.919E+02 0.579E+02   0.497E+01 -.241E+01 -.376E+01   -.129E-03 -.107E-02 -.580E-03
   0.145E+03 -.660E+01 0.507E+02   -.150E+03 0.268E+01 -.528E+02   0.353E+01 0.369E+01 0.115E+01   -.120E-03 0.403E-03 0.428E-03
   0.633E+02 0.220E+02 -.877E+02   -.626E+02 -.230E+02 0.933E+02   -.864E+00 0.619E+00 -.610E+01   -.242E-03 0.400E-04 0.164E-03
   -.232E+01 -.108E+03 -.154E+01   0.197E+01 0.115E+03 -.825E+00   0.104E+01 -.455E+01 0.245E+01   0.108E-03 -.951E-04 -.203E-03
   -.524E+02 0.576E+02 -.929E+02   0.541E+02 -.589E+02 0.996E+02   -.134E+01 0.131E+01 -.506E+01   0.230E-04 -.446E-03 0.101E-03
   -.142E+03 0.642E+02 -.408E+01   0.149E+03 -.647E+02 0.458E+01   -.598E+01 0.644E+00 -.275E+00   0.232E-03 -.165E-03 0.136E-03
   -.260E+02 0.137E+03 0.713E+02   0.247E+02 -.139E+03 -.753E+02   0.117E+01 0.174E+01 0.490E+01   -.404E-03 0.103E-03 0.168E-03
   -.588E+02 -.474E+02 -.125E+03   0.588E+02 0.448E+02 0.129E+03   -.110E+01 0.158E+01 -.647E+01   -.328E-03 0.889E-04 0.307E-03
   -.113E+03 0.727E+01 0.530E+02   0.117E+03 -.102E+02 -.571E+02   -.191E+01 0.236E+01 0.499E+01   0.235E-03 -.251E-03 -.268E-03
   0.730E+02 0.118E+03 -.201E+02   -.719E+02 -.124E+03 0.245E+02   -.247E-01 0.475E+01 -.330E+01   0.291E-03 -.207E-03 0.222E-03
   0.711E+02 -.144E+02 0.103E+03   -.733E+02 0.136E+02 -.107E+03   0.230E+01 0.941E+00 0.394E+01   0.117E-03 -.137E-03 -.441E-03
   0.640E+02 0.914E+02 -.276E+02   -.654E+02 -.941E+02 0.301E+02   0.170E+01 0.500E+01 -.234E+01   -.481E-03 0.255E-03 0.162E-03
   0.285E+02 -.111E+03 -.139E+03   -.275E+02 0.115E+03 0.143E+03   -.257E+00 -.427E+01 -.301E+01   -.492E-03 0.226E-03 0.208E-03
   -.589E+02 -.134E+03 0.916E+02   0.616E+02 0.138E+03 -.920E+02   -.429E+01 -.411E+01 -.527E+00   0.346E-03 -.299E-03 -.247E-03
   0.592E+02 0.909E+01 -.797E+02   -.630E+02 -.919E+01 0.845E+02   0.404E+01 0.715E+00 -.422E+01   0.152E-03 -.169E-04 0.264E-03
   -.489E+02 -.181E+03 0.614E+01   0.485E+02 0.186E+03 -.695E+01   0.134E-01 -.604E+01 0.610E+00   -.846E-03 -.177E-03 0.196E-03
   0.878E+02 -.789E+02 -.552E+02   -.920E+02 0.767E+02 0.559E+02   0.489E+01 0.202E+01 0.114E+01   -.423E-03 -.322E-03 -.174E-03
   0.982E+02 -.416E+02 0.174E+03   -.965E+02 0.424E+02 -.180E+03   0.939E-01 -.353E+00 0.610E+01   0.684E-03 -.111E-03 -.359E-03
   0.149E+03 0.513E+02 0.594E+01   -.152E+03 -.527E+02 -.473E+01   0.490E+01 0.248E+01 -.102E+01   0.144E-03 -.785E-04 0.120E-03
   0.310E+01 -.156E+03 0.321E+02   -.373E+01 0.160E+03 -.358E+02   -.462E+00 -.479E+01 0.295E+01   -.152E-03 0.515E-03 0.133E-03
   -.469E+02 -.258E+02 -.145E+03   0.486E+02 0.267E+02 0.149E+03   -.244E+01 -.157E+01 -.531E+01   0.672E-04 0.502E-03 0.412E-03
   0.379E+01 -.553E+02 -.102E+03   -.374E+01 0.547E+02 0.108E+03   0.146E+01 -.504E+00 -.496E+01   0.165E-03 -.407E-03 -.448E-03
   -.205E+02 0.264E+02 0.107E+03   0.191E+02 -.328E+02 -.108E+03   -.343E+00 0.603E+01 0.109E+01   0.649E-03 -.174E-03 -.623E-03
   0.171E+03 -.434E+02 0.902E+02   -.173E+03 0.420E+02 -.953E+02   0.247E+01 0.277E+01 0.459E+01   -.202E-03 0.877E-04 0.249E-03
   0.124E+03 -.120E+03 0.233E+02   -.127E+03 0.124E+03 -.212E+02   0.129E+01 -.443E+01 -.144E+01   -.230E-03 0.236E-03 0.135E-03
   -.553E+02 -.120E+03 0.335E+02   0.593E+02 0.125E+03 -.342E+02   -.380E+01 -.482E+01 0.469E+00   0.729E-04 0.475E-03 -.101E-03
   -.110E+03 0.584E+02 -.233E+01   0.115E+03 -.626E+02 0.566E+01   -.356E+01 0.350E+01 -.165E+01   0.553E-04 0.200E-03 0.136E-04
   -.528E+02 0.129E+03 -.718E+02   0.577E+02 -.132E+03 0.732E+02   -.414E+01 0.216E+01 -.364E+01   -.447E-03 0.400E-03 0.494E-03
   -.358E+02 -.114E+03 0.132E+02   0.381E+02 0.120E+03 -.139E+02   -.778E+00 -.689E+01 0.583E+00   -.482E-03 0.442E-03 0.410E-03
   0.576E+02 -.158E+03 0.715E+02   -.579E+02 0.161E+03 -.763E+02   -.288E+01 -.288E+01 0.450E+01   0.429E-03 -.154E-03 -.364E-04
   -.534E+02 -.714E+02 -.674E+02   0.571E+02 0.716E+02 0.713E+02   -.557E+01 -.151E+00 -.220E+01   0.460E-03 -.213E-03 -.215E-03
   -.788E+01 0.101E+03 0.117E+03   0.998E+01 -.102E+03 -.122E+03   -.188E+01 0.250E+00 0.490E+01   -.118E-03 0.925E-04 0.206E-03
   0.118E+02 0.170E+03 0.271E+02   -.156E+02 -.175E+03 -.246E+02   0.270E+01 0.466E+01 -.204E+01   -.242E-03 0.539E-03 0.290E-03
   0.792E+02 0.530E+02 0.433E+02   -.806E+02 -.589E+02 -.411E+02   0.176E+01 0.625E+01 -.201E+01   -.236E-03 0.345E-04 0.429E-03
   -.800E+02 -.157E+03 0.344E+02   0.827E+02 0.161E+03 -.302E+02   -.208E+01 -.358E+01 -.188E+01   0.262E-03 0.943E-04 0.306E-03
[...]
   -.366E+02 0.664E+02 0.119E+03   0.308E+02 -.825E+02 -.157E+03   0.784E+01 0.155E+02 0.390E+02   0.212E-04 -.133E-04 -.230E-03
   0.210E+03 0.112E+03 -.143E+03   -.249E+03 -.120E+03 0.163E+03   0.382E+02 0.715E+01 -.185E+02   -.373E-03 0.794E-03 -.268E-03
   0.624E+02 -.330E+03 0.405E+02   -.726E+02 0.373E+03 -.201E+02   0.112E+02 -.444E+02 -.206E+02   0.326E-03 0.422E-03 -.204E-03
   0.193E+03 0.879E+02 -.203E+03   -.240E+03 -.102E+03 0.210E+03   0.446E+02 0.130E+02 -.753E+01   0.853E-05 0.107E-04 -.523E-03
   -.176E+03 -.366E+03 -.252E+03   0.185E+03 0.413E+03 0.275E+03   -.842E+01 -.473E+02 -.231E+02   0.303E-03 0.365E-03 -.416E-03
   0.985E+02 -.190E+02 0.387E+03   -.112E+03 0.132E+02 -.439E+03   0.129E+02 0.565E+01 0.519E+02   -.384E-03 0.354E-03 -.517E-04
   -.221E+03 0.265E+03 0.261E+03   0.248E+03 -.299E+03 -.298E+03   -.265E+02 0.335E+02 0.360E+02   0.350E-05 0.704E-04 0.483E-03
   0.689E+02 0.498E+03 -.577E+02   -.710E+02 -.548E+03 0.701E+02   0.218E+01 0.509E+02 -.123E+02   0.148E-03 -.385E-03 0.215E-03
   -.622E+02 -.114E+03 -.798E+02   0.843E+02 0.149E+03 0.106E+03   -.207E+02 -.341E+02 -.256E+02   0.416E-03 -.176E-03 0.718E-04
   0.151E+03 0.251E+02 0.140E+03   -.200E+03 -.227E+02 -.149E+03   0.464E+02 -.208E+01 0.873E+01   -.222E-03 0.220E-03 0.194E-03
   -.116E+02 -.298E+01 0.951E+02   0.849E+01 0.748E+01 -.998E+02   0.210E+01 -.448E+01 0.548E+01   -.153E-03 0.123E-03 -.878E-04
   -.130E+03 -.382E+02 -.107E+03   0.128E+03 0.436E+02 0.110E+03   0.252E+01 -.454E+01 -.830E+00   0.199E-03 0.287E-03 -.268E-03
   0.483E+02 0.135E+03 0.623E+02   -.484E+02 -.139E+03 -.615E+02   -.143E+01 0.156E+01 -.383E+01   0.176E-03 -.381E-03 -.247E-06
   -.140E+03 0.362E+02 0.207E+02   0.141E+03 -.393E+02 -.263E+02   0.894E+00 0.313E+01 0.606E+01   -.430E-04 0.423E-03 0.131E-03
   0.116E+03 -.193E+03 -.330E+03   -.469E-11 -.451E-11 -.212E-11   -.116E+03 0.193E+03 0.330E+03   0.621E-02 -.162E-02 -.441E-02

 POSITION                                       TOTAL-FORCE (eV/Angst)
     11.86929      4.16353     12.92209         1.421711     -0.535452     -1.092396
     12.86559      2.26846     11.72579        -0.057943      1.897995     -0.274588
     11.53019     16.76669     13.10449         0.588522     -0.478197      0.252133
      9.87799     16.96999     11.25479         1.023826      1.630413     -0.073263
      7.37569     17.39929     15.17069         0.725289     -0.470453     -0.516306
      7.99429     16.56359     17.25789         2.112920      1.033124      0.185961
     13.40419      0.90773     11.90879        -1.678861     -0.976249      0.995715
     12.68599     17.63279     12.68909         1.000998     -0.836837     -0.014205
      8.52859     16.61789     11.72049        -1.611493      0.083224      1.353949
      7.10189     17.15359     13.69749         0.768922      0.729830      1.958389
     11.89439     11.03299      9.92839         1.097093     -1.045802      0.925919
     10.45989     10.97649     11.91009        -0.563370     -0.363274     -0.869323
      8.32819     12.81579     15.12859        -0.674936      1.180832      0.058062
      6.14352     11.95179     15.48149         0.105172     -0.612735      2.092382
      3.01134     15.18559     14.02649         0.207223     -0.541238     -0.290372
      3.64875     17.39909     13.42779         0.410560     -0.180791     -1.719951
     10.22739     11.54009     13.24629        -0.287033      0.740087      1.336277
      9.08649     13.63329     14.12189        -0.232895      1.137847      1.383047
      5.22989     13.03669     15.99139         0.858712     -0.133761      1.377081
      3.72204     14.72419     15.24479         2.080684      1.091041      1.182377
     11.45609      0.06387     16.55869         0.792794     -1.576321     -0.489079
     10.09569      1.49617     15.34799        -0.482089      0.745617     -2.358730
     12.35069      4.56412     17.87509         0.649605     -1.023029      0.172615
     13.83459      4.67942      0.82243         0.571203     -0.242333      1.096630
     13.05689      3.87371      5.19169        -1.592653      0.812240     -0.724451
     10.69439      3.58933      5.98384         1.314235     -1.569756     -0.845916
      9.78939      2.96684     15.78929        -0.644512     -0.229793     -0.942265
     11.11519      3.78139     17.54659        -0.228005     -0.357251     -0.525117
     13.95429      4.64417      2.34639         0.693115      1.923309      0.094881
     14.13499      3.28347      4.30225         0.347962      0.048690      1.680411
      3.85302     11.63919     11.68419         0.675378      0.207760      0.238542
      1.92875     11.45149     10.39399        -0.201168      0.037500      0.910666
      2.47995     15.04169      9.52309        -1.085661     -1.012520     -2.322759
      3.01079     15.07289      7.10659         1.742948     -0.571011      0.892524
     17.84879     13.94759      5.32739         1.055567     -1.599540      1.112609
     16.90569     14.77589      3.40727         0.098791      0.131161      0.121522
      0.58462     12.05459     10.05109         0.253644      2.293488      0.117690
      1.17761     14.40419     10.02859         0.748651      0.189793      1.185457
      2.34575     15.32739      5.82050        -1.625396      0.119400     -0.929551
      0.12736     14.29859      6.31365         0.289804      0.611114      0.506852
     10.20999      5.21086      9.38179        -0.371493     -0.960757     -0.201701
      8.76919      3.19466      9.69369         0.645185     -0.096851      1.879111
      6.87543     18.32799      7.94649         1.804401      0.420302      0.443113
      5.27065     17.81289      9.72309         1.849034      1.135920      0.187880
      5.34300      2.78804     12.65939        -1.095049     -0.459710     -0.783930
      6.07445      2.40604     14.86569        -0.731198     -0.684362     -1.459510
      8.70909      1.70804      9.41279         1.514048     -1.118890      0.290062
      8.39719     18.72329      7.78349        -1.678751     -0.361409      0.518963
      4.52255      0.27979      9.96699         0.146583      1.397928     -0.436987
      4.55842      2.14961     11.50029        -1.291013     -0.069533      0.635067
     11.61189     15.43039     17.35609         0.205529      0.179268     -0.212047
     11.51709     13.35699     18.25949         0.736804     -0.682836      1.677596
      8.61539     11.30309      2.60918         0.804133     -0.305609     -2.178688
      7.54969     13.30659      2.06790         1.475705     -0.597547     -0.120464
      5.51146     16.61519      2.73674        -3.184424     -0.495903     -0.346410
      6.33742     15.92509      4.78499        -1.935552      0.071443      1.691170
     10.70259     12.14589     18.54719         0.211761     -0.842055      0.080027
      9.60819     11.00409      1.43431        -1.027064     -0.068682      0.531933
      6.22745     13.85399      1.53620         0.345721      0.345358      0.207031
      6.64421     16.25459      1.78962         0.614813      0.771349      2.331149
[...]
     10.64819      7.78219      2.62268        -0.137130     -1.444696     -0.206340
     17.22349      9.82749      6.28817         2.037683     -0.673096      1.142951
     11.56469      8.66229      5.45624        -0.228403     -0.219548      1.100506
      9.31169     15.73329      7.36659         0.892025     -0.973077     -0.188379
     13.17489     13.86029     13.24539        -1.745596     -0.642008     -0.968081
     14.80479     15.51819     13.81899         0.479460      0.228677      0.108054
      9.24329     14.27589      5.35723        -0.246750     -0.194684     -0.688526
     15.54989     13.40609      9.54469         0.639239     -0.635993     -0.692706
      8.68229     11.73409      9.54689         0.026951      0.505019      0.111648
      9.44779     14.05869      9.95479         1.423986      1.073924      0.989744
     13.45149     14.30609     10.34539        -2.367662      0.272492      0.183097
      9.58979     14.43759      6.73447        -1.082888      0.015686      0.795889
     14.56729     14.24489     13.19159         0.410937      0.837158      2.375675
      8.71819     13.12609      9.14579        -1.520344     -1.993132     -3.041659
     14.87519     14.24939     10.46139         1.516439      0.016034      0.569180
    total drift:                               -0.082268     -0.008744     -0.051794

  FREE ENERGIE OF THE ION-ELECTRON SYSTEM (eV)
  free  energy   TOTEN  =     -3424.98276421 eV

  energy  without entropy=    -3424.98276421  energy(sigma->0) =    -3424.98276421

 writing wavefunctions